p tw 157 170
1 2
2 70
3 14
4 5
4 8
5 6
6 7
7 12
8 9
9 10
10 11
10 12
11 12
12 13
13 15
14 25
14 47
15 16
16 17
17 18
18 19
19 20
20 21
21 22
21 32
22 23
23 24
24 26
25 36
26 27
27 28
28 29
29 30
30 31
31 16
32 33
33 34
34 35
35 37
36 103
37 38
38 39
38 54
39 40
39 45
40 41
41 42
42 43
43 44
44 51
45 46
46 48
47 58
48 49
49 50
50 51
51 52
52 53
53 37
54 55
55 56
56 57
56 60
57 59
58 66
59 62
60 61
61 62
62 63
63 64
64 65
66 67
67 68
68 69
69 71
69 74
70 81
71 72
72 73
73 78
74 75
75 76
76 77
76 78
77 78
78 79
79 80
80 82
81 92
82 83
83 84
84 85
85 86
86 87
87 88
88 89
89 90
89 105
90 91
91 93
92 103
93 94
94 95
95 96
96 97
97 98
98 99
99 100
100 101
101 102
102 104
103 114
104 82
105 106
106 107
107 108
108 109
108 143
109 110
110 111
111 112
112 113
113 115
114 125
115 116
116 117
117 118
117 137
118 119
119 120
120 121
121 122
122 123
123 124
124 126
125 136
126 127
127 128
128 129
129 130
130 131
131 132
132 133
133 134
134 135
135 111
136 147
137 138
138 139
139 140
140 141
141 142
142 143
143 144
144 145
145 146
146 148
147 3
148 149
148 151
149 150
150 151
150 34
151 152
152 153
153 154
154 155
155 156
156 157
157 4
